(set-logic QF_NRA)
(set-info :source |Benchmarks generated from hycomp (https://es-static.fbk.eu/tools/hycomp/). BMC instances of non-linear hybrid automata taken from: Alessandro Cimatti, Sergio Mover, Stefano Tonetta, A quantifier-free SMT encoding of non-linear hybrid automata, FMCAD 2012 and Alessandro Cimatti, Sergio Mover, Stefano Tonetta, Quantier-free encoding of invariants for Hybrid Systems, Formal Methods in System Design. This instance solves a BMC problem of depth 1 and uses the quantifier free encoding with equivalences and lemmas encoding. Contacts: Sergio Mover (mover@fbk.eu), Stefano Tonetta (tonettas@fbk.eu), Alessandro Cimatti (cimatti@fbk.eu).|)
(set-info :smt-lib-version 2.0)
(set-info :category "industrial")
(set-info :status unsat)
;; MathSAT API call trace
;; generated on Mon Mar 19 10:37:00 2012
(declare-fun b.event_is_timed__AT0 () Bool)
(declare-fun b.y__AT0 () Real)
(declare-fun b.counter.0__AT0 () Bool)
(declare-fun b.counter.1__AT0 () Bool)
(declare-fun b.EVENT.0__AT0 () Bool)
(declare-fun b.bool_atom__AT0 () Bool)
(declare-fun b.counter.2__AT0 () Bool)
(declare-fun b.speed_y__AT1 () Real)
(declare-fun b.event_is_timed__AT1 () Bool)
(declare-fun b.x__AT0 () Real)
(declare-fun b.time__AT1 () Real)
(declare-fun b.bool_atom__AT1 () Bool)
(declare-fun b.g__AT0 () Real)
(declare-fun b.EVENT.1__AT0 () Bool)
(declare-fun b.time__AT0 () Real)
(declare-fun b.delta__AT0 () Real)
(declare-fun b.counter.3__AT0 () Bool)
(declare-fun b.speed_y__AT0 () Real)
(declare-fun b.y__AT1 () Real)
(declare-fun b.counter.0__AT1 () Bool)
(declare-fun b.counter.1__AT1 () Bool)
(declare-fun b.counter.2__AT1 () Bool)
(declare-fun b.counter.3__AT1 () Bool)
(declare-fun b.delta__AT1 () Real)
(declare-fun b.EVENT.0__AT1 () Bool)
(declare-fun b.x__AT1 () Real)
(declare-fun b.EVENT.1__AT1 () Bool)
(assert (let ((.def_65 (* (- 1.0) b.g__AT0)))
(let ((.def_68 (* (/ 1 2) .def_65)))
(let ((.def_80 (* 2.0 .def_68)))
(let ((.def_292 (* .def_80 b.delta__AT1)))
(let ((.def_293 (+ b.speed_y__AT1 .def_292)))
(let ((.def_310 (<= .def_293 0.0 )))
(let ((.def_311 (not .def_310)))
(let ((.def_308 (<= b.speed_y__AT1 0.0 )))
(let ((.def_331 (or .def_308 .def_311)))
(let ((.def_296 (<= 0.0 b.speed_y__AT1)))
(let ((.def_297 (not .def_296)))
(let ((.def_294 (<= 0.0 .def_293)))
(let ((.def_330 (or .def_294 .def_297)))
(let ((.def_332 (and .def_330 .def_331)))
(let ((.def_120 (<= 0.0 b.g__AT0)))
(let ((.def_333 (or .def_120 .def_332)))
(let ((.def_295 (not .def_294)))
(let ((.def_327 (or .def_295 .def_296)))
(let ((.def_309 (not .def_308)))
(let ((.def_326 (or .def_309 .def_310)))
(let ((.def_328 (and .def_326 .def_327)))
(let ((.def_115 (<= b.g__AT0 0.0 )))
(let ((.def_329 (or .def_115 .def_328)))
(let ((.def_334 (and .def_329 .def_333)))
(let ((.def_323 (and .def_308 .def_310)))
(let ((.def_322 (and .def_294 .def_296)))
(let ((.def_324 (or .def_322 .def_323)))
(let ((.def_283 (* b.speed_y__AT1 b.delta__AT1)))
(let ((.def_281 (* b.delta__AT1 b.delta__AT1)))
(let ((.def_282 (* .def_68 .def_281)))
(let ((.def_284 (+ .def_282 .def_283)))
(let ((.def_272 (* (- 1.0) b.x__AT1)))
(let ((.def_273 (* b.x__AT1 .def_272)))
(let ((.def_285 (* (- 1.0) .def_273)))
(let ((.def_288 (+ .def_285 .def_284)))
(let ((.def_289 (+ b.y__AT1 .def_288)))
(let ((.def_302 (<= .def_289 0.0 )))
(let ((.def_316 (not .def_302)))
(let ((.def_300 (<= b.y__AT1 .def_273)))
(let ((.def_317 (or .def_300 .def_316)))
(let ((.def_274 (<= .def_273 b.y__AT1)))
(let ((.def_314 (not .def_274)))
(let ((.def_290 (<= 0.0 .def_289)))
(let ((.def_315 (or .def_290 .def_314)))
(let ((.def_318 (and .def_315 .def_317)))
(let ((.def_312 (or .def_309 .def_311)))
(let ((.def_313 (not .def_312)))
(let ((.def_319 (or .def_313 .def_318)))
(let ((.def_304 (not .def_290)))
(let ((.def_305 (or .def_274 .def_304)))
(let ((.def_301 (not .def_300)))
(let ((.def_303 (or .def_301 .def_302)))
(let ((.def_306 (and .def_303 .def_305)))
(let ((.def_298 (or .def_295 .def_297)))
(let ((.def_299 (not .def_298)))
(let ((.def_307 (or .def_299 .def_306)))
(let ((.def_320 (and .def_307 .def_319)))
(let ((.def_291 (and .def_274 .def_290)))
(let ((.def_321 (and .def_291 .def_320)))
(let ((.def_325 (and .def_321 .def_324)))
(let ((.def_335 (and .def_325 .def_334)))
(let ((.def_57 (<= b.g__AT0 10.0 )))
(let ((.def_56 (<= 8.0 b.g__AT0)))
(let ((.def_58 (and .def_56 .def_57)))
(let ((.def_336 (and .def_58 .def_335)))
(let ((.def_275 (and .def_58 .def_274)))
(let ((.def_269 (not b.EVENT.0__AT1)))
(let ((.def_267 (not b.EVENT.1__AT1)))
(let ((.def_270 (or .def_267 .def_269)))
(let ((.def_6 (not b.counter.0__AT1)))
(let ((.def_4 (not b.counter.1__AT1)))
(let ((.def_260 (or .def_4 .def_6)))
(let ((.def_264 (or b.counter.3__AT1 .def_260)))
(let ((.def_261 (or b.counter.2__AT1 .def_260)))
(let ((.def_9 (not b.counter.2__AT1)))
(let ((.def_259 (or .def_6 .def_9)))
(let ((.def_262 (and .def_259 .def_261)))
(let ((.def_199 (not b.counter.3__AT1)))
(let ((.def_263 (or .def_199 .def_262)))
(let ((.def_265 (and .def_263 .def_264)))
(let ((.def_271 (and .def_265 .def_270)))
(let ((.def_276 (and .def_271 .def_275)))
(let ((.def_254 (<= 0.0 b.delta__AT0)))
(let ((.def_46 (not b.EVENT.0__AT0)))
(let ((.def_44 (not b.EVENT.1__AT0)))
(let ((.def_129 (and .def_44 .def_46)))
(let ((.def_131 (not .def_129)))
(let ((.def_255 (or .def_131 .def_254)))
(let ((.def_256 (or b.EVENT.1__AT0 .def_255)))
(let ((.def_168 (= b.bool_atom__AT0 b.bool_atom__AT1)))
(let ((.def_163 (= b.counter.0__AT1 b.counter.0__AT0)))
(let ((.def_161 (= b.counter.1__AT1 b.counter.1__AT0)))
(let ((.def_159 (= b.counter.2__AT1 b.counter.2__AT0)))
(let ((.def_158 (= b.counter.3__AT0 b.counter.3__AT1)))
(let ((.def_160 (and .def_158 .def_159)))
(let ((.def_162 (and .def_160 .def_161)))
(let ((.def_164 (and .def_162 .def_163)))
(let ((.def_250 (and .def_164 .def_168)))
(let ((.def_251 (or .def_131 .def_250)))
(let ((.def_252 (or b.EVENT.1__AT0 .def_251)))
(let ((.def_239 (* b.delta__AT0 .def_65)))
(let ((.def_240 (* (- 1.0) b.speed_y__AT1)))
(let ((.def_243 (+ .def_240 .def_239)))
(let ((.def_244 (+ b.speed_y__AT0 .def_243)))
(let ((.def_245 (= .def_244 0.0 )))
(let ((.def_231 (* (- 1.0) b.y__AT1)))
(let ((.def_71 (* b.delta__AT0 b.speed_y__AT0)))
(let ((.def_234 (+ .def_71 .def_231)))
(let ((.def_64 (* b.delta__AT0 b.delta__AT0)))
(let ((.def_69 (* .def_64 .def_68)))
(let ((.def_235 (+ .def_69 .def_234)))
(let ((.def_236 (+ b.y__AT0 .def_235)))
(let ((.def_237 (= .def_236 0.0 )))
(let ((.def_149 (= b.x__AT0 b.x__AT1)))
(let ((.def_238 (and .def_149 .def_237)))
(let ((.def_246 (and .def_238 .def_245)))
(let ((.def_247 (or .def_131 .def_246)))
(let ((.def_152 (= b.y__AT0 b.y__AT1)))
(let ((.def_226 (and .def_149 .def_152)))
(let ((.def_155 (= b.speed_y__AT0 b.speed_y__AT1)))
(let ((.def_227 (and .def_155 .def_226)))
(let ((.def_223 (= b.delta__AT0 0.0 )))
(let ((.def_224 (and .def_129 .def_223)))
(let ((.def_225 (not .def_224)))
(let ((.def_228 (or .def_225 .def_227)))
(let ((.def_229 (or b.EVENT.1__AT0 .def_228)))
(let ((.def_216 (and .def_155 .def_164)))
(let ((.def_217 (or b.bool_atom__AT0 .def_216)))
(let ((.def_191 (or .def_6 b.counter.0__AT0)))
(let ((.def_27 (not b.counter.0__AT0)))
(let ((.def_190 (or b.counter.0__AT1 .def_27)))
(let ((.def_192 (and .def_190 .def_191)))
(let ((.def_193 (and .def_4 .def_192)))
(let ((.def_194 (or b.counter.1__AT0 .def_193)))
(let ((.def_25 (not b.counter.1__AT0)))
(let ((.def_189 (or b.counter.1__AT1 .def_25)))
(let ((.def_195 (and .def_189 .def_194)))
(let ((.def_207 (and .def_9 .def_195)))
(let ((.def_208 (or b.counter.2__AT0 .def_207)))
(let ((.def_202 (and .def_4 .def_27)))
(let ((.def_203 (or b.counter.1__AT0 .def_202)))
(let ((.def_204 (and .def_189 .def_203)))
(let ((.def_205 (and b.counter.2__AT1 .def_204)))
(let ((.def_30 (not b.counter.2__AT0)))
(let ((.def_206 (or .def_30 .def_205)))
(let ((.def_209 (and .def_206 .def_208)))
(let ((.def_210 (and b.counter.3__AT1 .def_209)))
(let ((.def_211 (or b.counter.3__AT0 .def_210)))
(let ((.def_196 (and b.counter.2__AT1 .def_195)))
(let ((.def_197 (or b.counter.2__AT0 .def_196)))
(let ((.def_185 (or b.counter.1__AT1 b.counter.1__AT0)))
(let ((.def_183 (and .def_4 b.counter.0__AT1)))
(let ((.def_184 (or .def_25 .def_183)))
(let ((.def_186 (and .def_184 .def_185)))
(let ((.def_187 (and .def_9 .def_186)))
(let ((.def_188 (or .def_30 .def_187)))
(let ((.def_198 (and .def_188 .def_197)))
(let ((.def_200 (and .def_198 .def_199)))
(let ((.def_33 (not b.counter.3__AT0)))
(let ((.def_201 (or .def_33 .def_200)))
(let ((.def_212 (and .def_201 .def_211)))
(let ((.def_180 (* b.speed_y__AT0 b.speed_y__AT0)))
(let ((.def_179 (* b.speed_y__AT1 b.speed_y__AT1)))
(let ((.def_181 (= .def_179 .def_180)))
(let ((.def_177 (+ b.speed_y__AT0 b.speed_y__AT1)))
(let ((.def_178 (= .def_177 0.0 )))
(let ((.def_182 (and .def_178 .def_181)))
(let ((.def_213 (and .def_182 .def_212)))
(let ((.def_176 (not b.bool_atom__AT0)))
(let ((.def_214 (or .def_176 .def_213)))
(let ((.def_51 (* (- 1.0) b.x__AT0)))
(let ((.def_52 (* b.x__AT0 .def_51)))
(let ((.def_173 (= b.y__AT0 .def_52)))
(let ((.def_85 (<= 0.0 b.speed_y__AT0)))
(let ((.def_86 (not .def_85)))
(let ((.def_174 (and .def_86 .def_173)))
(let ((.def_175 (= b.bool_atom__AT0 .def_174)))
(let ((.def_215 (and .def_175 .def_214)))
(let ((.def_218 (and .def_215 .def_217)))
(let ((.def_219 (and .def_149 .def_218)))
(let ((.def_220 (and .def_152 .def_219)))
(let ((.def_221 (or .def_129 .def_220)))
(let ((.def_222 (or b.EVENT.1__AT0 .def_221)))
(let ((.def_230 (and .def_222 .def_229)))
(let ((.def_248 (and .def_230 .def_247)))
(let ((.def_136 (= b.time__AT0 b.time__AT1)))
(let ((.def_150 (and .def_136 .def_149)))
(let ((.def_153 (and .def_150 .def_152)))
(let ((.def_156 (and .def_153 .def_155)))
(let ((.def_165 (and .def_156 .def_164)))
(let ((.def_169 (and .def_165 .def_168)))
(let ((.def_170 (or .def_44 .def_169)))
(let ((.def_139 (* (- 1.0) b.time__AT1)))
(let ((.def_142 (+ b.delta__AT0 .def_139)))
(let ((.def_143 (+ b.time__AT0 .def_142)))
(let ((.def_144 (= .def_143 0.0 )))
(let ((.def_145 (or .def_131 .def_144)))
(let ((.def_146 (or b.EVENT.1__AT0 .def_145)))
(let ((.def_137 (or .def_129 .def_136)))
(let ((.def_138 (or b.EVENT.1__AT0 .def_137)))
(let ((.def_147 (and .def_138 .def_146)))
(let ((.def_171 (and .def_147 .def_170)))
(let ((.def_133 (= .def_131 b.event_is_timed__AT1)))
(let ((.def_130 (= b.event_is_timed__AT0 .def_129)))
(let ((.def_134 (and .def_130 .def_133)))
(let ((.def_172 (and .def_134 .def_171)))
(let ((.def_249 (and .def_172 .def_248)))
(let ((.def_253 (and .def_249 .def_252)))
(let ((.def_257 (and .def_253 .def_256)))
(let ((.def_258 (and .def_44 .def_257)))
(let ((.def_277 (and .def_258 .def_276)))
(let ((.def_28 (and .def_25 .def_27)))
(let ((.def_31 (and .def_28 .def_30)))
(let ((.def_278 (and .def_31 .def_277)))
(let ((.def_81 (* b.delta__AT0 .def_80)))
(let ((.def_82 (+ b.speed_y__AT0 .def_81)))
(let ((.def_99 (<= .def_82 0.0 )))
(let ((.def_100 (not .def_99)))
(let ((.def_97 (<= b.speed_y__AT0 0.0 )))
(let ((.def_122 (or .def_97 .def_100)))
(let ((.def_83 (<= 0.0 .def_82)))
(let ((.def_121 (or .def_83 .def_86)))
(let ((.def_123 (and .def_121 .def_122)))
(let ((.def_124 (or .def_120 .def_123)))
(let ((.def_84 (not .def_83)))
(let ((.def_117 (or .def_84 .def_85)))
(let ((.def_98 (not .def_97)))
(let ((.def_116 (or .def_98 .def_99)))
(let ((.def_118 (and .def_116 .def_117)))
(let ((.def_119 (or .def_115 .def_118)))
(let ((.def_125 (and .def_119 .def_124)))
(let ((.def_112 (and .def_97 .def_99)))
(let ((.def_111 (and .def_83 .def_85)))
(let ((.def_113 (or .def_111 .def_112)))
(let ((.def_72 (+ .def_69 .def_71)))
(let ((.def_73 (* (- 1.0) .def_52)))
(let ((.def_76 (+ .def_73 .def_72)))
(let ((.def_77 (+ b.y__AT0 .def_76)))
(let ((.def_91 (<= .def_77 0.0 )))
(let ((.def_105 (not .def_91)))
(let ((.def_89 (<= b.y__AT0 .def_52)))
(let ((.def_106 (or .def_89 .def_105)))
(let ((.def_53 (<= .def_52 b.y__AT0)))
(let ((.def_103 (not .def_53)))
(let ((.def_78 (<= 0.0 .def_77)))
(let ((.def_104 (or .def_78 .def_103)))
(let ((.def_107 (and .def_104 .def_106)))
(let ((.def_101 (or .def_98 .def_100)))
(let ((.def_102 (not .def_101)))
(let ((.def_108 (or .def_102 .def_107)))
(let ((.def_93 (not .def_78)))
(let ((.def_94 (or .def_53 .def_93)))
(let ((.def_90 (not .def_89)))
(let ((.def_92 (or .def_90 .def_91)))
(let ((.def_95 (and .def_92 .def_94)))
(let ((.def_87 (or .def_84 .def_86)))
(let ((.def_88 (not .def_87)))
(let ((.def_96 (or .def_88 .def_95)))
(let ((.def_109 (and .def_96 .def_108)))
(let ((.def_79 (and .def_53 .def_78)))
(let ((.def_110 (and .def_79 .def_109)))
(let ((.def_114 (and .def_110 .def_113)))
(let ((.def_126 (and .def_114 .def_125)))
(let ((.def_127 (and .def_58 .def_126)))
(let ((.def_59 (and .def_53 .def_58)))
(let ((.def_47 (or .def_44 .def_46)))
(let ((.def_37 (or .def_25 .def_27)))
(let ((.def_41 (or b.counter.3__AT0 .def_37)))
(let ((.def_38 (or b.counter.2__AT0 .def_37)))
(let ((.def_36 (or .def_27 .def_30)))
(let ((.def_39 (and .def_36 .def_38)))
(let ((.def_40 (or .def_33 .def_39)))
(let ((.def_42 (and .def_40 .def_41)))
(let ((.def_48 (and .def_42 .def_47)))
(let ((.def_60 (and .def_48 .def_59)))
(let ((.def_34 (and .def_31 .def_33)))
(let ((.def_22 (= b.y__AT0 10.0 )))
(let ((.def_18 (= b.x__AT0 0.0 )))
(let ((.def_14 (= b.time__AT0 0.0 )))
(let ((.def_16 (and .def_14 b.event_is_timed__AT0)))
(let ((.def_19 (and .def_16 .def_18)))
(let ((.def_23 (and .def_19 .def_22)))
(let ((.def_35 (and .def_23 .def_34)))
(let ((.def_61 (and .def_35 .def_60)))
(let ((.def_7 (and .def_4 .def_6)))
(let ((.def_10 (and .def_7 .def_9)))
(let ((.def_11 (not .def_10)))
(let ((.def_62 (and .def_11 .def_61)))
(let ((.def_128 (and .def_62 .def_127)))
(let ((.def_279 (and .def_128 .def_278)))
(let ((.def_337 (and .def_279 .def_336)))
.def_337))))))))))))))))))))))))))))))))))))))))))))))))))))))))))))))))))))))))))))))))))))))))))))))))))))))))))))))))))))))))))))))))))))))))))))))))))))))))))))))))))))))))))))))))))))))))))))))))))))))))))))))))))))))))))))))))))))))))))))))))))))))))))))))))))))))))))))))))))))))))))))))))))))
(check-sat)
(exit)
